benchmarks/bfuzz0/190122053459382843530632178651442926915.smt2
(set-logic QF_FP)
(declare-const x0 (_ FloatingPoint 11 53))
(declare-const x1 (_ FloatingPoint 11 53))
(declare-const x2 (_ FloatingPoint 11 53))
(declare-const x3 (_ FloatingPoint 11 53))
(declare-const x4 (_ FloatingPoint 11 53))
(declare-const x5 (_ FloatingPoint 11 53))
(declare-const x6 (_ FloatingPoint 11 53))
(declare-const x7 (_ FloatingPoint 11 53))
(declare-const x8 (_ FloatingPoint 11 53))
(declare-const x9 (_ FloatingPoint 11 53))
(declare-const x10 (_ FloatingPoint 11 53))
(declare-const x11 (_ FloatingPoint 11 53))
(assert (fp.lt (fp.sub RNE x6 x7) (fp.neg x10)))
(assert (fp.leq (fp.mul RNE x3 x10) (fp.div RNE x9 x11)))
(assert (fp.geq (fp.add RNE x10 x5) (fp.add RNE x1 x1)))
(assert (fp.gt (fp.sub RNE x10 x9) (fp.neg x0)))
(assert (fp.lt (fp.div RNE x3 x6) (fp.sub RNE x1 x9)))
(assert (fp.lt (fp.neg x0) (fp.add RNE x7 x6)))
(assert (fp.geq (fp.add RNE x11 x3) (fp.add RNE x1 x0)))
(assert (fp.leq (fp.div RNE x10 x6) (fp.neg x8)))
(assert (fp.lt (fp.add RNE x4 x3) (fp.neg x1)))
(assert (fp.leq (fp.mul RNE x2 x7) (fp.div RNE x1 x5)))
(assert (fp.eq (fp.add RNE x9 x10) (fp.add RNE x1 x11)))
(assert (fp.lt (fp.add RNE x7 x0) (fp.neg x6)))
(assert (fp.geq (fp.div RNE x8 x10) (fp.sub RNE x9 x6)))
(assert (fp.eq (fp.add RNE x9 x0) (fp.sub RNE x6 x8)))
(assert (fp.lt (fp.div RNE x1 x9) (fp.div RNE x8 x3)))
(assert (fp.eq (fp.neg x11) (fp.add RNE x2 x1)))
(assert (fp.leq (fp.sub RNE x3 x7) (fp.mul RNE x9 x4)))
(assert (fp.gt (fp.sub RNE x5 x11) (fp.sub RNE x3 x4)))
(check-sat)
