db/data/190122053459382843530632178651442926915.z3.out
-------------------
2500.194825548
